NAME : random_17
COMMENT : 44 random nodes
TYPE : TSP
DIMENSION : 44
EDGE_WEIGHT_TYPE : EUC_2D
NODE_COORD_SECTION
1 -1090 5444
2 2698 6540
3 1686 -35
4 -4805 -6055
5 3203 7228
6 1964 6012
7 -6003 4696
8 -2967 5981
9 -1283 3337
10 -5649 -3616
11 2365 544
12 710 7479
13 -1632 222
14 3190 -5937
15 4217 3158
16 -4037 -4157
17 6587 1911
18 914 3
19 2776 7477
20 -995 -109
21 5554 4048
22 2823 2159
23 -1661 3813
24 5757 -3959
25 2879 -3831
26 -2639 -2203
27 220 6859
28 3599 -616
29 4881 -2139
30 3771 5402
31 -109 6563
32 4722 3375
33 5500 650
34 4580 3473
35 -4695 5877
36 -2258 4818
37 7008 4155
38 2611 2943
39 4264 -3319
40 3029 5203
41 4920 -3551
42 2461 3565
43 6855 640
44 6502 -3986
EOF